
******************************************************************************
This program contains Ipopt, a library for large-scale nonlinear optimization.
 Ipopt is released as open source code under the Eclipse Public License (EPL).
         For more information visit https://github.com/coin-or/Ipopt
******************************************************************************

This is Ipopt version 3.13.4, running with linear solver ma27.

Number of nonzeros in equality constraint Jacobian...:    29994
Number of nonzeros in inequality constraint Jacobian.:        0
Number of nonzeros in Lagrangian Hessian.............:    19999

Total number of variables............................:    10000
                     variables with only lower bounds:        0
                variables with lower and upper bounds:        0
                     variables with only upper bounds:        0
Total number of equality constraints.................:     9998
Total number of inequality constraints...............:        0
        inequality constraints with only lower bounds:        0
   inequality constraints with lower and upper bounds:        0
        inequality constraints with only upper bounds:        0

iter    objective    inf_pr   inf_du lg(mu)  ||d||  lg(rg) alpha_du alpha_pr  ls
   0  2.5405160e+06 2.48e+01 2.73e+01  -1.0 0.00e+00    -  0.00e+00 0.00e+00   0
   1  1.3512419e+06 1.49e+01 8.27e+01  -1.0 2.20e+00    -  1.00e+00 1.00e+00f  1
   2  1.5156131e+05 4.28e+00 1.36e+02  -1.0 1.43e+00    -  1.00e+00 1.00e+00f  1
   3  6.6755024e+01 3.09e-01 2.18e+01  -1.0 5.63e-01    -  1.00e+00 1.00e+00f  1
   4  6.2338933e+00 1.73e-02 8.47e-01  -1.0 2.10e-01    -  1.00e+00 1.00e+00h  1
   5  6.2324586e+00 1.15e-05 8.16e-04  -1.7 3.35e-03    -  1.00e+00 1.00e+00h  1
   6  6.2324586e+00 8.36e-12 7.97e-10  -5.7 2.00e-06    -  1.00e+00 1.00e+00h  1

Number of Iterations....: 6

                                   (scaled)                 (unscaled)
Objective...............:   7.8692659500479578e-01    6.2324586324379831e+00
Dual infeasibility......:   7.9744559784639631e-10    6.3157691349434593e-09
Constraint violation....:   8.3559825725387782e-12    8.3559825725387782e-12
Complementarity.........:   0.0000000000000000e+00    0.0000000000000000e+00
Overall NLP error.......:   7.9744559784639631e-10    6.3157691349434593e-09


Number of objective function evaluations             = 7
Number of objective gradient evaluations             = 7
Number of equality constraint evaluations            = 7
Number of inequality constraint evaluations          = 0
Number of equality constraint Jacobian evaluations   = 7
Number of inequality constraint Jacobian evaluations = 0
Number of Lagrangian Hessian evaluations             = 6
Total CPU secs in IPOPT (w/o function evaluations)   =      0.034
Total CPU secs in NLP function evaluations           =      0.094

EXIT: Optimal Solution Found.
